NAME : GIL261A
TYPE : PDTSP
DIMENSION : 261
EDGE_WEIGHT_TYPE : EUC_2D
NODE_COORD_SECTION
1 -99 -97
2 -59 50
3 0 14
4 -17 -66
5 -69 -19
6 31 12
7 5 -41
8 -12 10
9 -64 70
10 -12 85
11 -18 64
12 -77 -16
13 -53 88
14 83 -24
15 24 41
16 17 21
17 42 96
18 -65 0
19 -47 -26
20 85 36
21 -35 -54
22 54 -21
23 64 -17
24 55 89
25 17 -25
26 -61 66
27 -61 26
28 17 -72
29 79 38
30 -62 -2
31 -90 -68
32 52 66
33 -54 -50
34 8 -84
35 37 -90
36 -83 49
37 35 -1
38 7 59
39 12 48
40 57 95
41 92 28
42 -3 97
43 -7 52
44 42 -15
45 77 -43
46 59 -49
47 25 91
48 69 -19
49 -82 -14
50 74 -70
51 69 59
52 29 33
53 -97 9
54 -58 9
55 28 93
56 7 73
57 -28 73
58 -76 55
59 41 42
60 92 40
61 -84 -29
62 -12 42
63 51 -45
64 -37 46
65 -97 35
66 14 89
67 60 58
68 -63 -75
69 -18 34
70 -46 -82
71 -86 -79
72 -43 -30
73 -44 7
74 -3 -20
75 36 41
76 -30 -94
77 79 -62
78 51 70
79 -61 -26
80 6 94
81 -19 -62
82 -20 51
83 7 31
84 52 12
85 83 -91
86 -7 -92
87 82 -74
88 -70 85
89 -83 -30
90 71 -61
91 85 11
92 66 -48
93 78 -87
94 9 -79
95 -36 4
96 66 39
97 92 -17
98 -46 -79
99 -30 -63
100 -42 63
101 20 42
102 15 98
103 1 -17
104 64 20
105 -96 85
106 93 -29
107 -40 -84
108 86 35
109 91 36
110 62 -8
111 -24 4
112 11 96
113 -53 62
114 -28 -71
115 7 -4
116 95 -9
117 -3 17
118 53 -90
119 58 -19
120 -83 84
121 -1 49
122 -4 17
123 -82 -3
124 -43 47
125 6 -6
126 70 99
127 68 -29
128 -94 -30
129 -94 -20
130 -21 77
131 64 37
132 -70 -19
133 88 65
134 2 29
135 33 57
136 -70 6
137 -38 -56
138 -80 -95
139 -5 -39
140 8 -22
141 -61 -76
142 76 -22
143 49 -71
144 -30 -68
145 1 34
146 77 79
147 -58 64
148 82 -97
149 -80 55
150 81 -86
151 39 -49
152 -67 72
153 -25 -89
154 -44 -95
155 32 -68
156 -17 49
157 93 49
158 99 81
159 10 -49
160 63 -41
161 38 39
162 -28 39
163 -2 -47
164 38 8
165 -42 -6
166 -67 88
167 19 93
168 40 27
169 -61 56
170 43 33
171 -18 -39
172 -69 19
173 75 -18
174 31 85
175 25 58
176 -16 36
177 91 15
178 60 -39
179 49 -47
180 42 33
181 16 -81
182 -78 53
183 53 -80
184 -46 -26
185 -25 -54
186 69 -46
187 0 -78
188 -84 74
189 -16 16
190 -63 -14
191 51 -77
192 -39 61
193 5 97
194 -55 39
195 70 -14
196 0 95
197 -45 7
198 38 -24
199 50 -37
200 59 71
201 -73 -96
202 -29 72
203 -47 12
204 -88 -61
205 -88 36
206 -46 -3
207 26 -37
208 -39 -67
209 92 27
210 -80 -31
211 93 -50
212 -20 -5
213 -22 73
214 -4 -7
215 54 -48
216 -70 39
217 54 -82
218 29 41
219 -87 51
220 -96 -36
221 49 8
222 -5 54
223 -26 43
224 -11 60
225 40 61
226 82 35
227 -92 12
228 -93 -86
229 -66 63
230 -72 -87
231 -57 -84
232 23 52
233 -56 -62
234 -19 59
235 63 -14
236 -13 38
237 -19 87
238 44 -84
239 98 -17
240 -16 62
241 3 66
242 26 22
243 -38 -81
244 70 80
245 17 -35
246 96 -83
247 -77 80
248 -14 44
249 -33 33
250 33 -33
251 70 0
252 -50 60
253 -50 -60
254 75 0
255 0 75
256 -75 0
257 0 -75
258 40 80
259 40 -80
260 -60 20
261 -60 -20
PICKUP_AND_DELIVERY_SECTION
1 0 0 0 0 0 0
2 0 0 0 0 0 216
3 0 0 0 0 122 0
4 0 0 0 0 187 0
5 0 0 0 0 0 132
6 0 0 0 0 0 221
7 0 0 0 0 0 163
8 0 0 0 0 0 95
9 0 0 0 0 229 0
10 0 0 0 0 255 0
11 0 0 0 0 82 0
12 0 0 0 0 0 256
13 0 0 0 0 188 0
14 0 0 0 0 48 0
15 0 0 0 0 0 232
16 0 0 0 0 161 0
17 0 0 0 0 66 0
18 0 0 0 0 0 136
19 0 0 0 0 184 0
20 0 0 0 0 108 0
21 0 0 0 0 0 171
22 0 0 0 0 0 37
23 0 0 0 0 0 235
24 0 0 0 0 0 40
25 0 0 0 0 0 207
26 0 0 0 0 0 120
27 0 0 0 0 260 0
28 0 0 0 0 94 0
29 0 0 0 0 109 0
30 0 0 0 0 0 206
31 0 0 0 0 0 71
32 0 0 0 0 0 67
33 0 0 0 0 210 0
34 0 0 0 0 257 0
35 0 0 0 0 181 0
36 0 0 0 0 54 0
37 0 0 0 0 22 0
38 0 0 0 0 0 39
39 0 0 0 0 38 0
40 0 0 0 0 24 0
41 0 0 0 0 0 177
42 0 0 0 0 193 0
43 0 0 0 0 121 0
44 0 0 0 0 198 0
45 0 0 0 0 178 0
46 0 0 0 0 0 238
47 0 0 0 0 135 0
48 0 0 0 0 0 14
49 0 0 0 0 89 0
50 0 0 0 0 92 0
51 0 0 0 0 78 0
52 0 0 0 0 164 0
53 0 0 0 0 65 0
54 0 0 0 0 0 36
55 0 0 0 0 0 174
56 0 0 0 0 241 0
57 0 0 0 0 224 0
58 0 0 0 0 124 0
59 0 0 0 0 0 170
60 0 0 0 0 131 0
61 0 0 0 0 129 0
62 0 0 0 0 236 0
63 0 0 0 0 0 151
64 0 0 0 0 0 194
65 0 0 0 0 0 53
66 0 0 0 0 0 17
67 0 0 0 0 32 0
68 0 0 0 0 0 228
69 0 0 0 0 0 249
70 0 0 0 0 231 0
71 0 0 0 0 31 0
72 0 0 0 0 0 233
73 0 0 0 0 0 203
74 0 0 0 0 0 115
75 0 0 0 0 0 218
76 0 0 0 0 137 0
77 0 0 0 0 119 0
78 0 0 0 0 0 51
79 0 0 0 0 261 0
80 0 0 0 0 0 196
81 0 0 0 0 0 114
82 0 0 0 0 0 11
83 0 0 0 0 101 0
84 0 0 0 0 0 133
85 0 0 0 0 183 0
86 0 0 0 0 107 0
87 0 0 0 0 0 148
88 0 0 0 0 0 152
89 0 0 0 0 0 49
90 0 0 0 0 186 0
91 0 0 0 0 0 226
92 0 0 0 0 0 50
93 0 0 0 0 195 0
94 0 0 0 0 0 28
95 0 0 0 0 8 0
96 0 0 0 0 0 146
97 0 0 0 0 116 0
98 0 0 0 0 0 208
99 0 0 0 0 0 144
100 0 0 0 0 0 113
101 0 0 0 0 0 83
102 0 0 0 0 0 167
103 0 0 0 0 212 0
104 0 0 0 0 254 0
105 0 0 0 0 149 0
106 0 0 0 0 0 191
107 0 0 0 0 0 86
108 0 0 0 0 0 20
109 0 0 0 0 0 29
110 0 0 0 0 0 199
111 0 0 0 0 165 0
112 0 0 0 0 222 0
113 0 0 0 0 100 0
114 0 0 0 0 81 0
115 0 0 0 0 74 0
116 0 0 0 0 0 97
117 0 0 0 0 189 0
118 0 0 0 0 0 251
119 0 0 0 0 0 77
120 0 0 0 0 26 0
121 0 0 0 0 0 43
122 0 0 0 0 0 3
123 0 0 0 0 0 172
124 0 0 0 0 0 58
125 0 0 0 0 140 0
126 0 0 0 0 258 0
127 0 0 0 0 173 0
128 0 0 0 0 220 0
129 0 0 0 0 0 61
130 0 0 0 0 0 237
131 0 0 0 0 0 60
132 0 0 0 0 5 0
133 0 0 0 0 84 0
134 0 0 0 0 145 0
135 0 0 0 0 0 47
136 0 0 0 0 18 0
137 0 0 0 0 0 76
138 0 0 0 0 0 201
139 0 0 0 0 0 214
140 0 0 0 0 0 125
141 0 0 0 0 0 204
142 0 0 0 0 0 239
143 0 0 0 0 0 155
144 0 0 0 0 99 0
145 0 0 0 0 0 134
146 0 0 0 0 96 0
147 0 0 0 0 0 252
148 0 0 0 0 87 0
149 0 0 0 0 0 105
150 0 0 0 0 0 246
151 0 0 0 0 63 0
152 0 0 0 0 88 0
153 0 0 0 0 243 0
154 0 0 0 0 185 0
155 0 0 0 0 143 0
156 0 0 0 0 248 0
157 0 0 0 0 209 0
158 0 0 0 0 159 0
159 0 0 0 0 0 158
160 0 0 0 0 211 0
161 0 0 0 0 0 16
162 0 0 0 0 223 0
163 0 0 0 0 7 0
164 0 0 0 0 0 52
165 0 0 0 0 0 111
166 0 0 0 0 0 247
167 0 0 0 0 102 0
168 0 0 0 0 180 0
169 0 0 0 0 0 205
170 0 0 0 0 59 0
171 0 0 0 0 21 0
172 0 0 0 0 123 0
173 0 0 0 0 0 127
174 0 0 0 0 55 0
175 0 0 0 0 0 225
176 0 0 0 0 197 0
177 0 0 0 0 41 0
178 0 0 0 0 0 45
179 0 0 0 0 0 245
180 0 0 0 0 0 168
181 0 0 0 0 0 35
182 0 0 0 0 219 0
183 0 0 0 0 0 85
184 0 0 0 0 0 19
185 0 0 0 0 0 154
186 0 0 0 0 0 90
187 0 0 0 0 0 4
188 0 0 0 0 0 13
189 0 0 0 0 0 117
190 0 0 0 0 0 227
191 0 0 0 0 106 0
192 0 0 0 0 242 0
193 0 0 0 0 0 42
194 0 0 0 0 64 0
195 0 0 0 0 0 93
196 0 0 0 0 80 0
197 0 0 0 0 0 176
198 0 0 0 0 0 44
199 0 0 0 0 110 0
200 0 0 0 0 244 0
201 0 0 0 0 138 0
202 0 0 0 0 0 213
203 0 0 0 0 73 0
204 0 0 0 0 141 0
205 0 0 0 0 169 0
206 0 0 0 0 30 0
207 0 0 0 0 25 0
208 0 0 0 0 98 0
209 0 0 0 0 0 157
210 0 0 0 0 0 33
211 0 0 0 0 0 160
212 0 0 0 0 0 103
213 0 0 0 0 202 0
214 0 0 0 0 139 0
215 0 0 0 0 0 250
216 0 0 0 0 2 0
217 0 0 0 0 0 259
218 0 0 0 0 75 0
219 0 0 0 0 0 182
220 0 0 0 0 0 128
221 0 0 0 0 6 0
222 0 0 0 0 0 112
223 0 0 0 0 0 162
224 0 0 0 0 0 57
225 0 0 0 0 175 0
226 0 0 0 0 91 0
227 0 0 0 0 190 0
228 0 0 0 0 68 0
229 0 0 0 0 0 9
230 0 0 0 0 0 253
231 0 0 0 0 0 70
232 0 0 0 0 15 0
233 0 0 0 0 72 0
234 0 0 0 0 0 240
235 0 0 0 0 23 0
236 0 0 0 0 0 62
237 0 0 0 0 130 0
238 0 0 0 0 46 0
239 0 0 0 0 142 0
240 0 0 0 0 234 0
241 0 0 0 0 0 56
242 0 0 0 0 0 192
243 0 0 0 0 0 153
244 0 0 0 0 0 200
245 0 0 0 0 179 0
246 0 0 0 0 150 0
247 0 0 0 0 166 0
248 0 0 0 0 0 156
249 0 0 0 0 69 0
250 0 0 0 0 215 0
251 0 0 0 0 118 0
252 0 0 0 0 147 0
253 0 0 0 0 230 0
254 0 0 0 0 0 104
255 0 0 0 0 0 10
256 0 0 0 0 12 0
257 0 0 0 0 0 34
258 0 0 0 0 0 126
259 0 0 0 0 217 0
260 0 0 0 0 0 27
261 0 0 0 0 0 79
DEPOT_SECTION
1 
-1
EOF
